37 38
27
3 3 27 15
3 4 27 22
3 5 34 27
3 6 34 32
7 3 1 31
8 3 13 31
9 3 18 15
11 3 19 12
12 3 18 18
13 3 21 30
14 3 5 12
3 17 30 13
18 3 3 28
21 3 5 25
3 4 0 27
4 4 26 26
4 5 5 16
4 6 9 15
4 10 33 17
22 4 5 21
24 4 0 34
5 3 8 31
4 5 33 12
5 6 13 15
10 5 24 33
5 14 0 13
37 12 0 0
